/*********************************************
 * OPL 12.6.0.0 Data
 * Author: Adrian Rodriguez Bazaga, Pau Rodriguez Esmerats
 * Creation Date: 06/12/2017 at 23:02:55
 *********************************************/

nNurses=130;
maxConsec=2;
maxPresence=7;
maxHours=5;
minHours=1;
hours=24;
demand= [21 18 38 38 18 38 38 19 26 18 1 1 1 2 1 1 1 1 0 1 16 35 19 28  ];
